24° run output:
{
    "Function": "kroB750.tsp",
    "Problem dimension": [
        136,
        444,
        219,
        734,
        616,
        111,
        438,
        168,
        259,
        498,
        407,
        370,
        349,
        256,
        191,
        321,
        104,
        108,
        139,
        661,
        36,
        345,
        529,
        426,
        446,
        249,
        51,
        468,
        421,
        416,
        106,
        262,
        63,
        367,
        495,
        484,
        404,
        267,
        17,
        183,
        79,
        413,
        733,
        739,
        396,
        342,
        551,
        454,
        178,
        687,
        30,
        24,
        650,
        567,
        195,
        390,
        97,
        549,
        589,
        482,
        341,
        165,
        99,
        667,
        322,
        511,
        291,
        184,
        405,
        653,
        56,
        689,
        58,
        606,
        217,
        16,
        619,
        302,
        57,
        672,
        238,
        275,
        355,
        347,
        628,
        148,
        197,
        20,
        474,
        720,
        102,
        226,
        668,
        570,
        380,
        123,
        461,
        575,
        88,
        307,
        128,
        742,
        286,
        536,
        611,
        366,
        170,
        115,
        459,
        240,
        747,
        143,
        119,
        205,
        236,
        169,
        68,
        282,
        25,
        22,
        670,
        194,
        564,
        271,
        327,
        673,
        581,
        572,
        583,
        600,
        408,
        521,
        49,
        674,
        125,
        91,
        597,
        696,
        456,
        492,
        541,
        381,
        703,
        336,
        326,
        40,
        520,
        610,
        174,
        477,
        92,
        657,
        543,
        466,
        443,
        412,
        537,
        453,
        724,
        677,
        369,
        346,
        577,
        81,
        497,
        337,
        494,
        420,
        289,
        87,
        509,
        371,
        702,
        208,
        748,
        193,
        203,
        558,
        699,
        316,
        514,
        98,
        714,
        257,
        749,
        688,
        212,
        214,
        462,
        318,
        85,
        448,
        599,
        560,
        626,
        629,
        199,
        680,
        32,
        436,
        392,
        270,
        695,
        595,
        690,
        325,
        535,
        70,
        578,
        622,
        260,
        277,
        141,
        340,
        232,
        107,
        314,
        220,
        403,
        602,
        508,
        487,
        666,
        472,
        23,
        209,
        160,
        187,
        362,
        224,
        9,
        424,
        344,
        26,
        701,
        71,
        363,
        431,
        483,
        225,
        150,
        118,
        638,
        592,
        552,
        394,
        641,
        530,
        206,
        109,
        469,
        588,
        655,
        658,
        437,
        531,
        113,
        73,
        94,
        154,
        741,
        112,
        359,
        586,
        103,
        576,
        353,
        37,
        705,
        273,
        126,
        556,
        329,
        299,
        475,
        294,
        654,
        50,
        213,
        233,
        691,
        142,
        215,
        471,
        525,
        532,
        662,
        144,
        254,
        78,
        609,
        13,
        574,
        138,
        562,
        540,
        1,
        38,
        613,
        348,
        228,
        284,
        356,
        563,
        708,
        253,
        584,
        231,
        429,
        28,
        512,
        300,
        27,
        391,
        648,
        5,
        149,
        679,
        76,
        389,
        172,
        664,
        281,
        727,
        60,
        465,
        590,
        83,
        312,
        632,
        685,
        14,
        245,
        377,
        376,
        735,
        506,
        643,
        745,
        171,
        526,
        137,
        10,
        132,
        439,
        686,
        330,
        550,
        311,
        467,
        185,
        34,
        645,
        719,
        473,
        181,
        368,
        422,
        561,
        204,
        382,
        425,
        201,
        414,
        555,
        55,
        491,
        627,
        354,
        287,
        634,
        279,
        496,
        202,
        130,
        117,
        46,
        223,
        738,
        419,
        486,
        693,
        95,
        301,
        61,
        358,
        251,
        399,
        640,
        105,
        430,
        544,
        276,
        147,
        659,
        6,
        406,
        510,
        568,
        663,
        264,
        351,
        452,
        239,
        59,
        692,
        450,
        432,
        229,
        507,
        533,
        704,
        75,
        235,
        478,
        565,
        328,
        593,
        649,
        11,
        295,
        386,
        216,
        625,
        152,
        710,
        159,
        134,
        401,
        77,
        546,
        427,
        352,
        712,
        39,
        441,
        384,
        198,
        252,
        52,
        100,
        447,
        269,
        445,
        145,
        35,
        579,
        331,
        317,
        266,
        315,
        272,
        678,
        244,
        176,
        182,
        527,
        460,
        726,
        221,
        596,
        255,
        737,
        305,
        671,
        69,
        308,
        189,
        711,
        42,
        630,
        309,
        700,
        523,
        573,
        717,
        357,
        614,
        744,
        179,
        707,
        2,
        669,
        72,
        644,
        518,
        186,
        385,
        713,
        428,
        127,
        82,
        608,
        490,
        553,
        493,
        480,
        393,
        513,
        656,
        620,
        642,
        86,
        582,
        192,
        652,
        397,
        605,
        732,
        175,
        415,
        247,
        479,
        53,
        188,
        306,
        164,
        374,
        706,
        725,
        434,
        569,
        47,
        265,
        155,
        243,
        242,
        547,
        157,
        298,
        323,
        740,
        499,
        196,
        135,
        746,
        114,
        285,
        304,
        101,
        338,
        617,
        709,
        15,
        248,
        156,
        90,
        8,
        3,
        319,
        96,
        639,
        131,
        283,
        485,
        723,
        594,
        66,
        234,
        116,
        684,
        501,
        538,
        500,
        545,
        681,
        67,
        313,
        324,
        200,
        89,
        730,
        665,
        0,
        481,
        121,
        166,
        33,
        140,
        631,
        601,
        124,
        464,
        45,
        591,
        566,
        207,
        489,
        274,
        43,
        559,
        120,
        418,
        290,
        297,
        694,
        332,
        676,
        258,
        440,
        636,
        122,
        288,
        93,
        682,
        615,
        230,
        398,
        502,
        524,
        417,
        516,
        598,
        449,
        463,
        62,
        12,
        729,
        84,
        542,
        743,
        587,
        698,
        31,
        402,
        409,
        718,
        373,
        378,
        539,
        585,
        451,
        218,
        320,
        177,
        278,
        624,
        180,
        621,
        65,
        173,
        400,
        635,
        162,
        293,
        411,
        580,
        333,
        133,
        263,
        646,
        296,
        515,
        246,
        241,
        470,
        728,
        44,
        554,
        715,
        163,
        423,
        210,
        675,
        350,
        722,
        435,
        457,
        410,
        637,
        612,
        222,
        261,
        21,
        19,
        158,
        80,
        716,
        361,
        548,
        375,
        190,
        660,
        505,
        335,
        4,
        110,
        161,
        372,
        458,
        721,
        697,
        522,
        517,
        504,
        64,
        528,
        618,
        146,
        683,
        388,
        280,
        623,
        167,
        364,
        303,
        433,
        607,
        603,
        534,
        343,
        151,
        339,
        360,
        365,
        571,
        334,
        29,
        387,
        7,
        268,
        250,
        48,
        557,
        379,
        651,
        503,
        153,
        736,
        383,
        395,
        18,
        74,
        519,
        129,
        237,
        633,
        604,
        647,
        310,
        292,
        488,
        455,
        211,
        731,
        41,
        476,
        54,
        442,
        227
    ],
    "Global Optimum": 0,
    "Algorithm": "Genetic algorithm",
    "Parameters": {
        "population": 30,
        "offspring": 30,
        "mutation probability": 0.0013333333333333333,
        "crossover probability": 0.9
    },
    "Fitness": 1037928,
    "Solution": [
        136,
        444,
        219,
        734,
        616,
        111,
        438,
        168,
        259,
        498,
        407,
        370,
        349,
        256,
        191,
        321,
        104,
        108,
        139,
        661,
        36,
        345,
        529,
        426,
        446,
        249,
        51,
        468,
        421,
        416,
        106,
        262,
        63,
        367,
        495,
        484,
        404,
        267,
        17,
        183,
        79,
        413,
        733,
        739,
        396,
        342,
        551,
        454,
        178,
        687,
        30,
        24,
        650,
        567,
        195,
        390,
        97,
        549,
        589,
        482,
        341,
        165,
        99,
        667,
        322,
        511,
        291,
        184,
        405,
        653,
        56,
        689,
        58,
        606,
        217,
        16,
        619,
        302,
        57,
        672,
        238,
        275,
        355,
        347,
        628,
        148,
        197,
        20,
        474,
        720,
        102,
        226,
        668,
        570,
        380,
        123,
        461,
        575,
        88,
        307,
        128,
        742,
        286,
        536,
        611,
        366,
        170,
        115,
        459,
        240,
        747,
        143,
        119,
        205,
        236,
        169,
        68,
        282,
        25,
        22,
        670,
        194,
        564,
        271,
        327,
        673,
        581,
        572,
        583,
        600,
        408,
        521,
        49,
        674,
        125,
        91,
        597,
        696,
        456,
        492,
        541,
        381,
        703,
        336,
        326,
        40,
        520,
        610,
        174,
        477,
        92,
        657,
        543,
        466,
        443,
        412,
        537,
        453,
        724,
        677,
        369,
        346,
        577,
        81,
        497,
        337,
        494,
        420,
        289,
        87,
        509,
        371,
        702,
        208,
        748,
        193,
        203,
        558,
        699,
        316,
        514,
        98,
        714,
        257,
        749,
        688,
        212,
        214,
        462,
        318,
        85,
        448,
        599,
        560,
        626,
        629,
        199,
        680,
        32,
        436,
        392,
        270,
        695,
        595,
        690,
        325,
        535,
        70,
        578,
        622,
        260,
        277,
        141,
        340,
        232,
        107,
        314,
        220,
        403,
        602,
        508,
        487,
        666,
        472,
        23,
        209,
        160,
        187,
        362,
        224,
        9,
        424,
        344,
        26,
        701,
        71,
        363,
        431,
        483,
        225,
        150,
        118,
        638,
        592,
        552,
        394,
        641,
        530,
        206,
        109,
        469,
        588,
        655,
        658,
        437,
        531,
        113,
        73,
        94,
        154,
        741,
        112,
        359,
        586,
        103,
        576,
        353,
        37,
        705,
        273,
        126,
        556,
        329,
        299,
        475,
        294,
        654,
        50,
        213,
        233,
        691,
        142,
        215,
        471,
        525,
        532,
        662,
        144,
        254,
        78,
        609,
        13,
        574,
        138,
        562,
        540,
        1,
        38,
        613,
        348,
        228,
        284,
        356,
        563,
        708,
        253,
        584,
        231,
        429,
        28,
        512,
        300,
        27,
        391,
        648,
        5,
        149,
        679,
        76,
        389,
        172,
        664,
        281,
        727,
        60,
        465,
        590,
        83,
        312,
        632,
        685,
        14,
        245,
        377,
        376,
        735,
        506,
        643,
        745,
        171,
        526,
        137,
        10,
        132,
        439,
        686,
        330,
        550,
        311,
        467,
        185,
        34,
        645,
        719,
        473,
        181,
        368,
        422,
        561,
        204,
        382,
        425,
        201,
        414,
        555,
        55,
        491,
        627,
        354,
        287,
        634,
        279,
        496,
        202,
        130,
        117,
        46,
        223,
        738,
        419,
        486,
        693,
        95,
        301,
        61,
        358,
        251,
        399,
        640,
        105,
        430,
        544,
        276,
        147,
        659,
        6,
        406,
        510,
        568,
        663,
        264,
        351,
        452,
        239,
        59,
        692,
        450,
        432,
        229,
        507,
        533,
        704,
        75,
        235,
        478,
        565,
        328,
        593,
        649,
        11,
        295,
        386,
        216,
        625,
        152,
        710,
        159,
        134,
        401,
        77,
        546,
        427,
        352,
        712,
        39,
        441,
        384,
        198,
        252,
        52,
        100,
        447,
        269,
        445,
        145,
        35,
        579,
        331,
        317,
        266,
        315,
        272,
        678,
        244,
        176,
        182,
        527,
        460,
        726,
        221,
        596,
        255,
        737,
        305,
        671,
        69,
        308,
        189,
        711,
        42,
        630,
        309,
        700,
        523,
        573,
        717,
        357,
        614,
        744,
        179,
        707,
        2,
        669,
        72,
        644,
        518,
        186,
        385,
        713,
        428,
        127,
        82,
        608,
        490,
        553,
        493,
        480,
        393,
        513,
        656,
        620,
        642,
        86,
        582,
        192,
        652,
        397,
        605,
        732,
        175,
        415,
        247,
        479,
        53,
        188,
        306,
        164,
        374,
        706,
        725,
        434,
        569,
        47,
        265,
        155,
        243,
        242,
        547,
        157,
        298,
        323,
        740,
        499,
        196,
        135,
        746,
        114,
        285,
        304,
        101,
        338,
        617,
        709,
        15,
        248,
        156,
        90,
        8,
        3,
        319,
        96,
        639,
        131,
        283,
        485,
        723,
        594,
        66,
        234,
        116,
        684,
        501,
        538,
        500,
        545,
        681,
        67,
        313,
        324,
        200,
        89,
        730,
        665,
        0,
        481,
        121,
        166,
        33,
        140,
        631,
        601,
        124,
        464,
        45,
        591,
        566,
        207,
        489,
        274,
        43,
        559,
        120,
        418,
        290,
        297,
        694,
        332,
        676,
        258,
        440,
        636,
        122,
        288,
        93,
        682,
        615,
        230,
        398,
        502,
        524,
        417,
        516,
        598,
        449,
        463,
        62,
        12,
        729,
        84,
        542,
        743,
        587,
        698,
        31,
        402,
        409,
        718,
        373,
        378,
        539,
        585,
        451,
        218,
        320,
        177,
        278,
        624,
        180,
        621,
        65,
        173,
        400,
        635,
        162,
        293,
        411,
        580,
        333,
        133,
        263,
        646,
        296,
        515,
        246,
        241,
        470,
        728,
        44,
        554,
        715,
        163,
        423,
        210,
        675,
        350,
        722,
        435,
        457,
        410,
        637,
        612,
        222,
        261,
        21,
        19,
        158,
        80,
        716,
        361,
        548,
        375,
        190,
        660,
        505,
        335,
        4,
        110,
        161,
        372,
        458,
        721,
        697,
        522,
        517,
        504,
        64,
        528,
        618,
        146,
        683,
        388,
        280,
        623,
        167,
        364,
        303,
        433,
        607,
        603,
        534,
        343,
        151,
        339,
        360,
        365,
        571,
        334,
        29,
        387,
        7,
        268,
        250,
        48,
        557,
        379,
        651,
        503,
        153,
        736,
        383,
        395,
        18,
        74,
        519,
        129,
        237,
        633,
        604,
        647,
        310,
        292,
        488,
        455,
        211,
        731,
        41,
        476,
        54,
        442,
        227
    ],
    "Nb of functions evaluations": 50010,
    "Computational time in seconds": 820.7576017379761,
    "Stopping criterion in evaluations": 50000
}